p cnf 61 143
1 0
5 6 0
-5 -6 0
7 -8 0
-7 8 0
-4 5 0
-4 7 0
4 -5 -7 0
10 11 0
-10 -11 0
12 -13 0
-12 13 0
-9 10 0
-9 12 0
9 -10 -12 0
3 -4 0
3 -9 0
-3 4 9 0
-16 3 0
16 -3 0
21 -11 0
-21 11 0
22 13 0
-22 -13 0
-20 21 0
-20 22 0
20 -21 -22 0
-23 4 0
23 -4 0
-19 20 0
-19 23 0
19 -20 -23 0
-25 9 0
25 -9 0
27 -6 0
-27 6 0
28 8 0
-28 -8 0
-26 27 0
-26 28 0
26 -27 -28 0
-24 25 0
-24 26 0
24 -25 -26 0
18 -19 0
18 -24 0
-18 19 24 0
31 11 0
-31 -11 0
32 13 0
-32 -13 0
-30 31 0
-30 32 0
30 -31 -32 0
-33 26 0
33 -26 0
-29 30 0
-29 33 0
29 -30 -33 0
17 -18 0
17 -29 0
-17 18 29 0
-15 16 0
-15 17 0
15 -16 -17 0
-35 3 0
35 -3 0
-39 20 0
39 -20 0
-40 9 0
40 -9 0
-38 39 0
-38 40 0
38 -39 -40 0
-42 9 0
42 -9 0
-43 20 0
43 -20 0
-41 42 0
-41 43 0
41 -42 -43 0
37 -38 0
37 -41 0
-37 38 41 0
-45 30 0
45 -30 0
-46 20 0
46 -20 0
-44 45 0
-44 46 0
44 -45 -46 0
36 -37 0
36 -44 0
-36 37 44 0
-34 35 0
-34 36 0
34 -35 -36 0
14 -15 0
14 -34 0
-14 15 34 0
2 -3 0
2 -14 0
-2 3 14 0
-51 26 0
51 -26 0
-52 9 0
52 -9 0
-50 51 0
-50 52 0
50 -51 -52 0
-54 4 0
54 -4 0
-55 20 0
55 -20 0
-53 54 0
-53 55 0
53 -54 -55 0
49 -50 0
49 -53 0
-49 50 53 0
58 6 0
-58 -6 0
59 8 0
-59 -8 0
-57 58 0
-57 59 0
57 -58 -59 0
-60 20 0
60 -20 0
-56 57 0
-56 60 0
56 -57 -60 0
48 -49 0
48 -56 0
-48 49 56 0
-61 57 0
61 -57 0
-47 48 0
-47 61 0
47 -48 -61 0
-1 2 0
-1 47 0
1 -2 -47 0
